[[34, 46, 8, 7, 35, 19, 53, 14, 59, 11, 66, 65, 38, 10, 31, 58, 72, 12, 40, 39, 9, 25, 55, 18, 50, 32, 44, 3, 24, 49, 23, 56, 41], [64, 42, 43, 73, 63, 33, 16, 6, 51, 17, 26, 67, 76, 75, 4, 68, 30, 2, 74, 28, 62, 22, 61, 21, 47, 69, 36, 71, 60, 70, 20, 37, 15, 57, 5, 48, 29, 45, 27, 13, 54, 52]]